148 147 11 176 151 178 86 45 107 110 187 122 59 120 167 73 126 137 104 183 42 169 9 31 76 174 98 49 150 24 130 57 101 50 111 184 99 41 75 163 109 93 5 80 116 46 134 38 67 103 106 85 20 92 52 115 97 129 7 193 33 19 21 65 96 146 102 13 142 117 105 84 161 198 68 53 64 123 63 0 8 162 139 27 181 36 61 168 17 172 165 58 133 197 112 185 3 43 60 108 1 179 40 62 121 138 140 32 195 37 74 127 171 153 188 10 196 159 25 44 173 166 39 156 83 152 48 30 149 136 144 91 192 77 51 119 29 4 177 186 72 131 14 154 194 34 199 78 69 180 95 26 56 66 114 54 128 125 87 2 55 191 175 132 47 16 118 35 88 158 89 28 23 170 71 15 143 135 90 182 160 164 190 100 70 22 189 18 157 82 94 81 145 79 155 113 12 6 141 124 

